% demand
num_movements = 24;
loading_factor = [1600, 1350, 1350, 1250, 850, 1650, 1500, 1550, 1450, 1950, 900, 1000, 1250, 1200, 1150, 1700, 900, 1950, 1400, 850, 1300, 1950, 1950, 850];
pickup_time = [0, 0, 0, 0, 0, 3, 3, 3, 4, 4, 6, 6, 6, 6, 6, 7, 7, 9, 9, 11, 11, 12, 13, 13];
delivery_time = [3, 3, 3, 3, 4, 4, 9, 5, 6, 5, 11, 7, 9, 7, 7, 11, 10, 11, 11, 12, 14, 14, 14, 14];

% transporter definition
total_capacity = 7000;
num_decks = 3;
capacity = [3000, 1000, 3000];

% ways out of decks
num_ways_out = 1;
paths_out = array3d(decks, ways_out, decks, [
% ways out of deck d1
2, 3, 0, 

% ways out of deck d2
3, 0, 0, 

% ways out of deck d3
0, 0, 0,	

]);

